benchmarks_CP/INST_49x49/40/inst49x49_40_20.dzn
S=7;
start=[|
-1,	-1,	-1,	-1,	-1,	-1,	22,	-1,	15,	-1,	2,	20,	21,	38,	-1,	-1,	-1,	14,	-1,	-1,	-1,	-1,	-1,	42,	40,	-1,	8,	45,	-1,	-1,	-1,	-1,	-1,	-1,	13,	-1,	-1,	-1,	7,	-1,	-1,	-1,	29,	-1,	-1,	-1,	-1,	-1,	-1|
-1,	-1,	-1,	-1,	-1,	-1,	-1,	-1,	41,	-1,	-1,	-1,	-1,	-1,	-1,	-1,	13,	38,	-1,	29,	-1,	46,	20,	15,	-1,	48,	-1,	-1,	-1,	-1,	45,	-1,	25,	37,	1,	42,	-1,	6,	-1,	18,	35,	-1,	22,	-1,	-1,	40,	19,	8,	39|
-1,	-1,	25,	17,	-1,	1,	-1,	13,	-1,	6,	-1,	-1,	-1,	-1,	-1,	-1,	-1,	-1,	-1,	-1,	-1,	27,	33,	36,	-1,	-1,	5,	41,	30,	-1,	4,	19,	35,	44,	-1,	15,	-1,	-1,	40,	32,	-1,	-1,	26,	-1,	-1,	3,	-1,	20,	23|
20,	43,	-1,	-1,	9,	-1,	-1,	-1,	-1,	-1,	-1,	-1,	-1,	-1,	-1,	-1,	-1,	5,	4,	-1,	-1,	49,	-1,	14,	-1,	-1,	-1,	30,	27,	-1,	-1,	38,	-1,	22,	31,	-1,	-1,	-1,	-1,	29,	-1,	34,	-1,	-1,	-1,	-1,	15,	-1,	-1|
44,	5,	-1,	-1,	15,	-1,	29,	-1,	-1,	17,	25,	1,	48,	7,	-1,	-1,	-1,	8,	23,	2,	3,	-1,	-1,	22,	35,	39,	-1,	6,	-1,	20,	-1,	16,	-1,	41,	-1,	-1,	33,	-1,	-1,	-1,	-1,	-1,	-1,	27,	-1,	12,	-1,	9,	-1|
-1,	-1,	30,	-1,	-1,	-1,	-1,	24,	8,	-1,	-1,	32,	-1,	-1,	-1,	22,	-1,	-1,	-1,	46,	28,	17,	13,	38,	-1,	-1,	-1,	-1,	-1,	42,	-1,	6,	-1,	3,	-1,	-1,	-1,	26,	-1,	-1,	12,	-1,	-1,	-1,	33,	-1,	-1,	-1,	-1|
-1,	-1,	-1,	-1,	-1,	-1,	-1,	45,	23,	49,	-1,	30,	-1,	22,	-1,	15,	-1,	9,	31,	36,	40,	-1,	11,	37,	16,	29,	-1,	25,	-1,	-1,	32,	-1,	12,	2,	-1,	-1,	1,	-1,	41,	-1,	13,	-1,	-1,	-1,	-1,	-1,	42,	-1,	46|
32,	10,	2,	-1,	45,	-1,	18,	-1,	-1,	41,	-1,	-1,	-1,	8,	-1,	3,	28,	46,	-1,	-1,	-1,	31,	-1,	-1,	37,	15,	-1,	43,	-1,	26,	-1,	34,	-1,	-1,	-1,	47,	21,	19,	17,	-1,	49,	-1,	-1,	-1,	-1,	-1,	36,	-1,	-1|
-1,	33,	3,	-1,	-1,	-1,	-1,	31,	18,	45,	48,	-1,	16,	-1,	-1,	19,	36,	10,	-1,	-1,	-1,	29,	-1,	-1,	44,	-1,	-1,	32,	-1,	-1,	37,	8,	-1,	-1,	5,	-1,	9,	-1,	1,	-1,	-1,	-1,	-1,	-1,	-1,	-1,	-1,	-1,	-1|
24,	-1,	-1,	40,	-1,	30,	42,	15,	-1,	-1,	7,	-1,	-1,	-1,	-1,	37,	8,	18,	-1,	41,	-1,	34,	-1,	13,	-1,	22,	12,	-1,	-1,	-1,	-1,	-1,	16,	-1,	-1,	-1,	39,	20,	-1,	5,	-1,	11,	1,	33,	-1,	6,	-1,	-1,	19|
-1,	22,	-1,	-1,	-1,	-1,	5,	-1,	44,	38,	-1,	49,	-1,	-1,	-1,	-1,	23,	-1,	-1,	33,	7,	21,	-1,	-1,	6,	-1,	10,	-1,	-1,	-1,	-1,	-1,	39,	-1,	48,	-1,	36,	-1,	-1,	31,	24,	-1,	-1,	-1,	8,	-1,	25,	4,	-1|
36,	49,	-1,	39,	20,	-1,	-1,	28,	-1,	-1,	-1,	-1,	-1,	-1,	-1,	-1,	1,	-1,	43,	-1,	38,	7,	35,	-1,	8,	-1,	25,	42,	-1,	-1,	-1,	31,	-1,	-1,	-1,	-1,	-1,	32,	2,	12,	48,	-1,	-1,	-1,	-1,	47,	-1,	16,	18|
-1,	35,	27,	-1,	-1,	-1,	-1,	33,	-1,	2,	-1,	-1,	1,	26,	-1,	32,	-1,	34,	24,	-1,	-1,	5,	-1,	3,	-1,	-1,	-1,	-1,	-1,	-1,	-1,	47,	18,	43,	-1,	4,	8,	38,	-1,	37,	-1,	40,	7,	-1,	-1,	-1,	-1,	-1,	15|
-1,	-1,	21,	-1,	-1,	-1,	-1,	27,	-1,	43,	-1,	47,	-1,	-1,	-1,	30,	-1,	13,	12,	15,	9,	-1,	49,	-1,	38,	16,	-1,	-1,	29,	-1,	-1,	33,	-1,	-1,	40,	44,	42,	-1,	-1,	3,	-1,	-1,	48,	26,	-1,	-1,	-1,	-1,	-1|
34,	23,	8,	-1,	-1,	39,	-1,	-1,	-1,	21,	-1,	-1,	-1,	-1,	-1,	7,	-1,	-1,	5,	19,	1,	-1,	44,	32,	30,	46,	-1,	-1,	-1,	-1,	-1,	9,	17,	-1,	-1,	-1,	29,	31,	-1,	-1,	-1,	-1,	40,	14,	6,	-1,	-1,	-1,	49|
-1,	-1,	33,	26,	-1,	-1,	-1,	4,	3,	15,	-1,	-1,	47,	-1,	-1,	-1,	39,	-1,	36,	38,	29,	-1,	23,	-1,	-1,	14,	27,	-1,	24,	40,	-1,	25,	-1,	-1,	18,	-1,	-1,	-1,	-1,	21,	-1,	1,	-1,	-1,	-1,	-1,	-1,	2,	22|
-1,	-1,	11,	-1,	6,	-1,	-1,	-1,	-1,	48,	36,	-1,	-1,	-1,	14,	-1,	-1,	15,	-1,	-1,	-1,	45,	-1,	-1,	-1,	20,	-1,	4,	-1,	35,	-1,	1,	13,	30,	-1,	-1,	17,	9,	-1,	-1,	39,	24,	31,	3,	-1,	-1,	-1,	19,	-1|
-1,	24,	-1,	-1,	49,	-1,	44,	26,	-1,	-1,	-1,	18,	8,	-1,	-1,	31,	21,	43,	-1,	-1,	20,	-1,	6,	-1,	-1,	-1,	-1,	-1,	-1,	-1,	-1,	-1,	38,	-1,	-1,	25,	37,	-1,	10,	4,	40,	-1,	-1,	-1,	-1,	-1,	-1,	-1,	-1|
40,	-1,	-1,	42,	-1,	-1,	4,	10,	-1,	-1,	20,	-1,	-1,	1,	12,	-1,	41,	35,	13,	-1,	45,	-1,	26,	-1,	-1,	-1,	-1,	-1,	-1,	-1,	49,	28,	27,	-1,	32,	-1,	38,	-1,	-1,	2,	-1,	44,	-1,	-1,	-1,	23,	37,	15,	-1|
-1,	-1,	36,	46,	-1,	-1,	-1,	-1,	-1,	34,	17,	-1,	-1,	-1,	3,	-1,	-1,	-1,	37,	22,	33,	38,	1,	19,	-1,	-1,	-1,	-1,	20,	-1,	-1,	23,	-1,	6,	-1,	-1,	-1,	-1,	-1,	13,	5,	-1,	25,	-1,	-1,	44,	-1,	-1,	21|
-1,	-1,	-1,	-1,	-1,	5,	-1,	38,	-1,	-1,	-1,	-1,	-1,	-1,	-1,	-1,	-1,	-1,	-1,	49,	4,	8,	-1,	17,	15,	-1,	-1,	-1,	-1,	-1,	-1,	44,	19,	39,	-1,	-1,	-1,	-1,	-1,	36,	34,	35,	-1,	-1,	48,	7,	-1,	13,	12|
-1,	46,	-1,	10,	44,	-1,	-1,	-1,	48,	-1,	-1,	-1,	29,	-1,	-1,	28,	-1,	23,	1,	32,	-1,	-1,	5,	-1,	-1,	7,	-1,	13,	-1,	-1,	-1,	-1,	-1,	-1,	12,	2,	4,	-1,	-1,	47,	36,	-1,	17,	-1,	38,	25,	-1,	-1,	26|
-1,	-1,	-1,	-1,	-1,	-1,	-1,	-1,	26,	-1,	49,	-1,	15,	-1,	34,	-1,	29,	-1,	45,	-1,	-1,	-1,	36,	10,	14,	-1,	-1,	8,	41,	-1,	-1,	11,	-1,	-1,	42,	-1,	-1,	-1,	44,	-1,	-1,	27,	-1,	28,	37,	22,	-1,	3,	-1|
-1,	4,	29,	-1,	37,	-1,	-1,	42,	-1,	-1,	-1,	19,	-1,	2,	-1,	35,	-1,	-1,	7,	6,	18,	-1,	-1,	-1,	-1,	-1,	38,	11,	22,	-1,	-1,	10,	-1,	-1,	46,	17,	15,	-1,	12,	-1,	21,	3,	13,	44,	45,	8,	41,	-1,	-1|
-1,	2,	1,	-1,	8,	43,	47,	-1,	22,	-1,	-1,	-1,	-1,	-1,	-1,	-1,	5,	48,	44,	-1,	-1,	-1,	18,	-1,	3,	17,	30,	-1,	-1,	32,	19,	35,	29,	-1,	-1,	-1,	25,	41,	-1,	7,	-1,	26,	-1,	12,	15,	-1,	-1,	-1,	-1|
-1,	25,	20,	-1,	-1,	-1,	36,	-1,	-1,	-1,	-1,	17,	-1,	13,	9,	-1,	43,	-1,	30,	3,	10,	-1,	-1,	46,	49,	-1,	6,	24,	-1,	-1,	2,	18,	-1,	-1,	-1,	-1,	-1,	-1,	-1,	34,	-1,	37,	-1,	23,	-1,	-1,	-1,	-1,	-1|
-1,	6,	41,	-1,	-1,	-1,	-1,	-1,	1,	24,	9,	-1,	25,	11,	15,	-1,	-1,	-1,	-1,	-1,	-1,	-1,	-1,	-1,	-1,	-1,	48,	-1,	-1,	-1,	-1,	4,	-1,	17,	-1,	-1,	-1,	43,	-1,	8,	-1,	28,	2,	-1,	-1,	-1,	20,	7,	-1|
3,	-1,	-1,	-1,	32,	-1,	-1,	-1,	-1,	-1,	5,	45,	12,	-1,	-1,	38,	-1,	-1,	-1,	13,	8,	-1,	-1,	16,	-1,	-1,	-1,	21,	6,	37,	-1,	-1,	-1,	1,	26,	24,	11,	-1,	-1,	-1,	-1,	-1,	43,	-1,	-1,	-1,	-1,	-1,	9|
-1,	-1,	-1,	-1,	-1,	-1,	48,	5,	-1,	42,	-1,	-1,	-1,	36,	-1,	13,	-1,	39,	-1,	-1,	-1,	-1,	-1,	-1,	-1,	-1,	-1,	-1,	-1,	34,	22,	-1,	-1,	19,	41,	-1,	-1,	-1,	18,	-1,	-1,	45,	-1,	-1,	12,	29,	-1,	35,	-1|
46,	-1,	12,	33,	-1,	-1,	26,	-1,	-1,	-1,	-1,	-1,	-1,	9,	-1,	-1,	6,	21,	25,	-1,	-1,	-1,	-1,	-1,	-1,	-1,	31,	-1,	-1,	-1,	-1,	17,	11,	24,	47,	-1,	19,	-1,	-1,	23,	-1,	-1,	44,	39,	-1,	5,	-1,	30,	-1|
29,	-1,	-1,	31,	-1,	-1,	-1,	35,	6,	33,	-1,	13,	-1,	-1,	-1,	45,	42,	-1,	15,	-1,	19,	36,	-1,	-1,	-1,	8,	7,	5,	-1,	30,	-1,	48,	37,	-1,	4,	-1,	47,	2,	-1,	46,	-1,	-1,	-1,	-1,	-1,	10,	-1,	-1,	24|
1,	-1,	-1,	-1,	-1,	-1,	-1,	17,	-1,	-1,	-1,	39,	-1,	20,	-1,	11,	31,	32,	48,	-1,	-1,	-1,	-1,	35,	18,	-1,	-1,	-1,	-1,	28,	14,	-1,	-1,	-1,	-1,	-1,	-1,	-1,	26,	44,	-1,	4,	19,	46,	2,	-1,	-1,	25,	-1|
39,	-1,	-1,	-1,	23,	35,	-1,	-1,	-1,	-1,	-1,	-1,	-1,	15,	-1,	-1,	16,	-1,	-1,	18,	17,	48,	-1,	-1,	-1,	37,	-1,	3,	31,	-1,	-1,	13,	-1,	-1,	-1,	11,	40,	49,	-1,	-1,	-1,	-1,	-1,	34,	26,	-1,	1,	-1,	-1|
13,	15,	-1,	-1,	-1,	42,	2,	48,	-1,	-1,	-1,	-1,	-1,	-1,	28,	1,	-1,	-1,	-1,	-1,	-1,	-1,	-1,	-1,	27,	-1,	-1,	14,	-1,	25,	23,	-1,	-1,	-1,	36,	38,	6,	-1,	-1,	30,	7,	-1,	-1,	37,	-1,	-1,	-1,	-1,	-1|
30,	-1,	19,	-1,	-1,	28,	-1,	41,	-1,	-1,	47,	34,	-1,	18,	-1,	24,	-1,	-1,	-1,	-1,	-1,	-1,	-1,	-1,	-1,	-1,	-1,	-1,	-1,	44,	-1,	49,	-1,	-1,	-1,	-1,	-1,	-1,	-1,	14,	-1,	31,	-1,	16,	43,	-1,	-1,	48,	-1|
-1,	-1,	26,	-1,	30,	-1,	19,	-1,	-1,	-1,	-1,	11,	-1,	41,	-1,	-1,	-1,	-1,	-1,	28,	-1,	-1,	24,	-1,	-1,	5,	-1,	-1,	34,	-1,	-1,	-1,	-1,	-1,	16,	-1,	43,	40,	20,	9,	33,	-1,	-1,	31,	-1,	48,	-1,	10,	-1|
12,	29,	18,	-1,	-1,	16,	33,	6,	20,	-1,	34,	-1,	42,	-1,	-1,	-1,	-1,	19,	46,	39,	-1,	-1,	15,	-1,	-1,	-1,	35,	-1,	-1,	47,	-1,	37,	-1,	13,	9,	-1,	-1,	-1,	-1,	27,	23,	14,	-1,	43,	-1,	17,	11,	-1,	5|
-1,	-1,	13,	44,	-1,	45,	32,	-1,	35,	40,	-1,	-1,	-1,	-1,	-1,	-1,	-1,	24,	42,	-1,	-1,	-1,	-1,	20,	22,	31,	3,	36,	-1,	-1,	48,	29,	8,	-1,	6,	49,	41,	-1,	-1,	-1,	18,	-1,	-1,	-1,	-1,	-1,	9,	23,	-1|
-1,	21,	-1,	28,	-1,	-1,	-1,	32,	9,	-1,	24,	-1,	-1,	-1,	7,	27,	-1,	-1,	-1,	30,	-1,	40,	-1,	-1,	11,	13,	-1,	19,	-1,	-1,	33,	-1,	-1,	49,	-1,	-1,	-1,	47,	31,	-1,	-1,	12,	-1,	8,	-1,	2,	46,	-1,	16|
-1,	-1,	-1,	25,	-1,	41,	-1,	43,	-1,	-1,	31,	-1,	7,	-1,	-1,	-1,	-1,	-1,	-1,	-1,	-1,	-1,	-1,	6,	33,	-1,	-1,	46,	-1,	-1,	-1,	-1,	-1,	11,	17,	-1,	-1,	-1,	19,	-1,	44,	32,	35,	15,	-1,	-1,	-1,	45,	38|
47,	27,	-1,	-1,	46,	10,	-1,	-1,	49,	26,	14,	-1,	-1,	-1,	-1,	5,	-1,	-1,	18,	-1,	21,	-1,	17,	-1,	-1,	-1,	-1,	-1,	-1,	41,	31,	-1,	-1,	-1,	25,	-1,	-1,	16,	-1,	-1,	-1,	13,	-1,	-1,	-1,	-1,	-1,	37,	3|
4,	1,	-1,	-1,	43,	31,	14,	22,	-1,	13,	-1,	-1,	33,	-1,	-1,	9,	-1,	37,	-1,	10,	-1,	-1,	30,	47,	21,	42,	39,	29,	-1,	19,	-1,	-1,	3,	-1,	-1,	-1,	-1,	25,	-1,	-1,	-1,	-1,	27,	-1,	-1,	-1,	-1,	41,	-1|
27,	-1,	-1,	-1,	3,	-1,	-1,	-1,	-1,	16,	-1,	8,	19,	14,	24,	-1,	-1,	-1,	-1,	-1,	32,	-1,	-1,	1,	-1,	4,	-1,	-1,	37,	38,	-1,	-1,	-1,	-1,	33,	-1,	20,	48,	39,	-1,	-1,	-1,	10,	11,	-1,	-1,	26,	-1,	30|
-1,	-1,	-1,	-1,	-1,	-1,	-1,	-1,	-1,	-1,	15,	-1,	-1,	-1,	-1,	14,	-1,	3,	33,	-1,	39,	6,	22,	-1,	-1,	36,	-1,	44,	-1,	7,	-1,	-1,	-1,	-1,	-1,	-1,	34,	-1,	28,	17,	-1,	47,	-1,	-1,	-1,	13,	-1,	-1,	-1|
-1,	-1,	-1,	4,	-1,	17,	-1,	-1,	-1,	-1,	-1,	24,	32,	49,	42,	16,	-1,	22,	-1,	-1,	-1,	30,	37,	-1,	34,	9,	-1,	26,	35,	-1,	-1,	-1,	-1,	18,	39,	-1,	27,	-1,	38,	-1,	45,	2,	-1,	-1,	-1,	-1,	-1,	40,	44|
23,	13,	-1,	-1,	-1,	-1,	30,	25,	-1,	-1,	-1,	-1,	10,	35,	21,	-1,	-1,	44,	38,	-1,	-1,	12,	-1,	39,	31,	-1,	-1,	49,	-1,	-1,	-1,	-1,	-1,	-1,	-1,	-1,	-1,	-1,	-1,	-1,	-1,	-1,	3,	-1,	-1,	9,	5,	1,	-1|
-1,	-1,	-1,	-1,	12,	-1,	-1,	1,	-1,	-1,	23,	-1,	-1,	30,	27,	-1,	19,	40,	26,	-1,	-1,	-1,	-1,	25,	-1,	24,	20,	-1,	-1,	-1,	28,	36,	-1,	-1,	11,	-1,	-1,	-1,	-1,	10,	-1,	-1,	-1,	29,	-1,	46,	34,	-1,	-1|
-1,	-1,	22,	29,	33,	-1,	8,	36,	42,	39,	38,	26,	-1,	-1,	-1,	-1,	46,	-1,	2,	-1,	-1,	14,	48,	-1,	-1,	-1,	-1,	-1,	-1,	-1,	-1,	12,	34,	20,	-1,	5,	7,	-1,	-1,	11,	1,	25,	6,	18,	19,	-1,	-1,	-1,	45|
41,	-1,	-1,	-1,	39,	-1,	-1,	7,	34,	-1,	11,	-1,	-1,	-1,	-1,	-1,	30,	-1,	20,	-1,	36,	-1,	10,	-1,	29,	-1,	28,	-1,	-1,	-1,	-1,	-1,	2,	-1,	8,	-1,	-1,	-1,	13,	-1,	46,	49,	-1,	-1,	-1,	-1,	-1,	-1,	-1|];
