sudoku-ls/benchmarks_LEQ/INST_49x49/40/inst49x49_40_20.txt
7
1
37	-1	-1	-1	-1	4	-1	-1	15	-1	-1	20	21	38	-1	39	-1	-1	-1	27	-1	-1	3	42	-1	1	8	-1	-1	33	-1	-1	-1	-1	13	-1	23	-1	-1	-1	-1	-1	-1	-1	16	-1	-1	-1	-1
7	11	-1	23	10	-1	31	34	-1	5	-1	33	3	-1	-1	21	-1	-1	-1	-1	43	-1	-1	15	-1	48	-1	-1	-1	36	45	24	-1	-1	1	-1	-1	-1	27	18	-1	-1	22	-1	-1	-1	-1	-1	-1
14	28	-1	17	-1	1	38	-1	-1	6	-1	42	-1	47	-1	18	-1	-1	-1	37	-1	-1	-1	-1	-1	34	-1	-1	30	-1	4	-1	35	-1	29	15	22	-1	-1	32	2	-1	-1	7	-1	3	-1	-1	-1
20	-1	42	-1	-1	8	-1	-1	10	-1	-1	35	26	40	-1	-1	-1	-1	-1	-1	6	49	7	14	-1	-1	-1	30	27	23	-1	38	-1	-1	-1	39	16	-1	11	29	-1	34	-1	-1	1	21	-1	-1	-1
-1	-1	46	-1	-1	-1	-1	11	-1	-1	25	1	48	-1	30	-1	24	-1	23	-1	-1	32	-1	-1	35	-1	-1	-1	-1	20	-1	-1	-1	-1	34	19	-1	10	-1	-1	-1	-1	-1	27	49	12	45	-1	-1
2	-1	-1	45	47	40	-1	-1	-1	-1	-1	32	-1	-1	1	-1	34	-1	-1	-1	-1	-1	13	38	-1	10	-1	-1	-1	42	15	-1	9	-1	7	37	-1	26	-1	49	12	-1	36	-1	-1	-1	-1	-1	-1
-1	-1	-1	-1	26	-1	-1	-1	-1	-1	-1	30	-1	22	47	-1	-1	9	-1	-1	40	-1	-1	-1	16	29	-1	25	-1	-1	-1	21	12	-1	-1	3	1	-1	41	-1	13	38	-1	-1	10	-1	-1	5	46
32	-1	-1	48	-1	13	-1	-1	24	41	22	-1	-1	-1	-1	-1	28	46	-1	-1	-1	31	-1	-1	37	-1	-1	-1	-1	-1	-1	-1	-1	9	20	47	-1	-1	-1	33	49	16	-1	38	40	30	36	14	-1
26	-1	-1	-1	7	47	-1	-1	-1	45	48	-1	-1	12	6	-1	36	-1	-1	11	-1	-1	-1	-1	-1	2	-1	32	-1	-1	37	-1	-1	-1	-1	-1	-1	-1	-1	-1	-1	-1	-1	-1	-1	24	-1	-1	35
24	14	31	-1	-1	30	-1	-1	21	9	-1	-1	-1	10	-1	-1	-1	18	35	-1	47	-1	-1	-1	-1	22	-1	-1	-1	46	44	-1	-1	-1	49	-1	-1	20	-1	5	29	-1	-1	33	-1	6	-1	-1	-1
-1	-1	-1	9	-1	-1	5	30	-1	-1	42	49	-1	-1	-1	-1	-1	-1	-1	-1	7	-1	46	-1	-1	26	10	47	19	-1	-1	41	39	-1	-1	-1	-1	13	-1	-1	24	18	-1	-1	8	34	-1	-1	27
-1	49	-1	39	20	-1	37	-1	-1	-1	6	-1	-1	-1	40	29	1	-1	-1	-1	38	-1	35	33	-1	11	25	-1	13	-1	3	31	15	-1	30	-1	-1	-1	2	12	-1	41	23	-1	-1	-1	-1	16	-1
16	-1	27	41	-1	46	-1	33	-1	2	-1	-1	1	-1	-1	-1	20	34	-1	-1	-1	5	-1	-1	-1	19	36	-1	-1	-1	-1	47	18	43	-1	4	-1	-1	-1	37	-1	40	-1	49	-1	-1	-1	-1	-1
-1	19	21	11	-1	-1	1	27	-1	-1	32	-1	-1	-1	4	30	-1	-1	12	-1	9	-1	-1	18	38	-1	-1	20	-1	-1	-1	-1	-1	-1	-1	-1	-1	7	-1	3	-1	-1	-1	26	-1	-1	2	-1	10
-1	23	-1	20	38	-1	-1	2	-1	-1	-1	-1	-1	-1	25	-1	18	-1	-1	-1	1	3	-1	-1	-1	-1	22	37	33	-1	41	-1	-1	15	10	-1	-1	31	47	45	16	42	-1	-1	-1	-1	-1	-1	49
-1	-1	33	26	13	-1	-1	-1	-1	15	-1	37	-1	-1	-1	-1	39	-1	36	38	-1	-1	23	-1	48	14	-1	10	24	-1	5	-1	-1	42	-1	-1	49	28	-1	21	-1	-1	-1	41	34	-1	16	2	-1
-1	-1	11	2	6	37	12	-1	-1	48	36	22	-1	23	-1	-1	40	15	-1	-1	42	-1	43	28	-1	-1	-1	-1	-1	35	16	-1	-1	-1	-1	33	-1	9	8	41	-1	24	31	-1	-1	-1	-1	19	-1
35	24	-1	-1	49	14	-1	26	45	-1	27	-1	-1	42	16	-1	21	-1	47	23	-1	-1	-1	5	-1	-1	-1	-1	-1	2	12	-1	38	7	-1	25	-1	-1	-1	4	40	19	9	-1	30	-1	-1	-1	32
-1	3	-1	42	-1	-1	4	10	-1	-1	-1	-1	9	1	12	17	-1	-1	13	-1	45	39	-1	11	-1	25	-1	16	-1	48	-1	28	-1	34	32	-1	38	22	6	2	14	-1	8	5	-1	23	-1	15	33
-1	-1	-1	-1	41	29	10	-1	-1	34	17	-1	-1	-1	-1	-1	-1	11	37	-1	-1	-1	-1	-1	-1	-1	-1	-1	-1	43	8	-1	-1	-1	14	12	26	-1	32	13	-1	15	25	-1	-1	44	47	-1	-1
-1	45	16	43	-1	5	-1	-1	-1	-1	-1	-1	40	-1	2	10	-1	-1	32	-1	4	-1	-1	-1	-1	-1	24	-1	47	29	-1	44	19	39	37	-1	3	-1	30	-1	-1	35	20	42	48	7	-1	-1	-1
-1	46	-1	10	-1	-1	-1	3	-1	-1	-1	6	-1	-1	-1	28	-1	-1	1	32	27	-1	-1	-1	-1	-1	-1	-1	-1	8	-1	43	-1	16	-1	-1	-1	42	-1	47	36	-1	-1	-1	-1	25	30	-1	26
21	-1	17	30	18	19	-1	23	26	4	-1	-1	15	43	34	46	-1	-1	-1	-1	24	1	-1	-1	-1	-1	-1	8	41	31	-1	-1	-1	25	-1	6	-1	39	-1	-1	9	27	-1	-1	-1	-1	32	-1	40
33	-1	-1	24	-1	27	-1	-1	47	28	40	-1	-1	-1	36	35	25	49	-1	-1	-1	23	-1	-1	-1	-1	-1	-1	-1	-1	9	10	20	14	-1	-1	-1	-1	12	-1	21	3	-1	-1	-1	-1	-1	-1	48
-1	-1	1	-1	8	43	47	-1	-1	20	39	-1	36	-1	11	-1	-1	48	-1	-1	-1	42	18	-1	-1	-1	30	-1	40	-1	-1	-1	29	-1	28	13	-1	-1	-1	-1	-1	26	46	12	-1	-1	24	-1	-1
-1	25	-1	16	-1	26	-1	44	27	-1	-1	17	-1	-1	-1	-1	43	-1	-1	-1	-1	28	-1	-1	-1	47	-1	24	48	-1	-1	18	-1	21	38	-1	-1	33	-1	-1	-1	-1	-1	23	11	-1	29	-1	-1
-1	-1	-1	5	35	-1	-1	-1	-1	24	9	-1	25	11	15	47	33	-1	-1	-1	-1	-1	12	29	-1	-1	-1	-1	-1	-1	27	4	-1	-1	-1	-1	18	-1	-1	-1	32	-1	-1	19	36	16	20	-1	-1
3	-1	-1	-1	-1	-1	23	14	-1	-1	-1	45	-1	-1	-1	-1	-1	-1	-1	-1	8	25	2	-1	-1	44	15	21	6	37	36	30	-1	1	-1	-1	-1	-1	35	-1	-1	20	43	-1	47	27	4	-1	-1
-1	-1	-1	-1	-1	-1	-1	-1	-1	-1	16	31	38	-1	49	-1	-1	39	-1	-1	-1	-1	40	-1	-1	-1	-1	33	-1	-1	22	-1	-1	19	-1	-1	-1	-1	-1	-1	37	45	-1	-1	-1	-1	-1	35	-1
-1	-1	12	-1	-1	-1	-1	-1	-1	-1	45	-1	2	-1	-1	-1	6	-1	-1	-1	34	-1	-1	49	-1	28	-1	1	-1	-1	-1	-1	-1	24	-1	-1	19	35	42	-1	-1	-1	44	-1	-1	-1	-1	30	-1
-1	-1	-1	31	-1	-1	11	35	6	-1	-1	-1	49	25	38	45	-1	-1	-1	-1	-1	-1	-1	-1	-1	-1	7	5	-1	-1	43	48	37	40	-1	20	47	-1	16	46	41	-1	-1	-1	-1	-1	23	-1	-1
-1	34	38	47	-1	-1	49	17	-1	37	-1	39	-1	-1	-1	11	-1	32	-1	-1	-1	13	-1	35	-1	-1	-1	-1	-1	28	-1	7	21	-1	-1	-1	-1	36	-1	-1	3	-1	-1	-1	-1	-1	-1	-1	-1
-1	-1	-1	22	23	-1	-1	-1	-1	-1	30	21	-1	15	-1	-1	16	29	-1	18	17	-1	-1	-1	-1	-1	46	3	-1	-1	-1	-1	-1	-1	2	-1	-1	-1	-1	-1	-1	-1	-1	-1	-1	-1	-1	38	-1
-1	-1	-1	18	-1	-1	-1	-1	-1	-1	3	-1	-1	32	-1	1	-1	47	-1	35	5	20	-1	26	27	45	-1	-1	12	25	23	-1	-1	-1	36	-1	6	34	9	-1	-1	-1	-1	-1	41	31	49	-1	8
30	-1	19	37	-1	28	25	-1	7	1	-1	34	-1	18	23	-1	-1	33	-1	-1	-1	4	38	-1	39	32	-1	-1	-1	44	6	-1	42	-1	-1	-1	13	-1	-1	-1	8	31	-1	-1	-1	-1	17	-1	36
-1	17	26	-1	-1	-1	-1	-1	38	-1	12	-1	45	41	13	-1	-1	-1	-1	28	2	-1	-1	-1	-1	-1	44	-1	34	-1	-1	42	-1	35	-1	-1	-1	-1	-1	9	-1	6	32	-1	-1	-1	-1	10	47
-1	-1	-1	-1	-1	16	33	-1	20	25	34	2	-1	-1	-1	44	32	19	-1	39	-1	10	15	-1	-1	38	-1	-1	-1	-1	40	37	-1	13	9	1	28	-1	-1	-1	-1	14	-1	-1	-1	17	-1	-1	-1
11	-1	-1	44	-1	45	-1	-1	35	-1	-1	15	-1	-1	33	12	-1	-1	-1	34	-1	-1	-1	20	-1	-1	-1	36	-1	-1	-1	-1	-1	-1	-1	-1	-1	17	-1	39	-1	-1	-1	-1	-1	-1	9	23	-1
-1	21	39	-1	-1	-1	-1	-1	-1	-1	-1	4	-1	37	-1	-1	-1	17	6	-1	-1	40	25	45	-1	-1	34	19	43	-1	33	-1	23	49	-1	-1	5	-1	-1	35	-1	-1	-1	-1	-1	-1	-1	29	-1
-1	-1	-1	25	34	-1	9	43	36	-1	-1	-1	-1	48	29	-1	47	1	-1	14	22	-1	-1	-1	-1	-1	-1	-1	-1	18	-1	-1	4	-1	-1	10	-1	21	19	-1	-1	32	-1	-1	-1	-1	13	-1	38
47	27	35	-1	-1	-1	-1	-1	-1	-1	-1	29	-1	-1	-1	5	11	-1	-1	-1	-1	2	17	-1	-1	23	32	9	7	-1	-1	20	-1	-1	25	22	30	16	-1	24	-1	-1	-1	40	-1	1	-1	-1	-1
4	-1	23	7	-1	31	-1	22	-1	13	-1	-1	-1	-1	-1	9	35	37	40	10	49	-1	30	47	-1	-1	-1	29	-1	19	-1	-1	-1	32	-1	-1	46	25	-1	-1	11	8	27	6	18	-1	-1	41	34
27	36	-1	34	-1	-1	46	18	-1	-1	-1	8	-1	14	24	-1	-1	7	28	17	-1	-1	21	1	-1	4	47	35	-1	-1	-1	40	-1	31	-1	9	20	-1	-1	-1	-1	23	-1	11	25	42	26	12	-1
-1	-1	-1	32	-1	25	21	-1	-1	12	-1	48	-1	-1	-1	-1	37	3	-1	-1	-1	-1	-1	2	-1	36	-1	44	49	-1	-1	-1	-1	-1	-1	-1	34	-1	-1	-1	43	47	-1	-1	-1	13	38	27	4
-1	31	6	4	48	-1	-1	-1	-1	-1	-1	-1	-1	-1	-1	-1	-1	-1	-1	1	-1	30	-1	7	-1	9	-1	26	-1	13	-1	-1	-1	18	-1	41	-1	-1	38	-1	-1	2	28	-1	-1	-1	-1	40	44
-1	-1	47	-1	40	-1	-1	-1	2	27	41	28	-1	35	21	-1	4	-1	-1	48	11	-1	-1	-1	-1	33	45	-1	17	22	-1	-1	32	26	15	16	-1	37	36	-1	42	-1	-1	20	-1	-1	-1	1	-1
43	16	-1	-1	12	-1	45	-1	-1	22	23	9	37	30	27	-1	-1	-1	-1	8	-1	18	42	-1	-1	24	-1	38	3	6	-1	-1	41	-1	11	-1	-1	-1	21	-1	-1	-1	-1	-1	-1	-1	-1	-1	-1
28	44	-1	29	-1	-1	8	-1	-1	-1	-1	26	-1	-1	-1	-1	-1	-1	-1	-1	-1	14	-1	-1	-1	-1	40	-1	-1	-1	10	-1	34	20	-1	5	7	-1	24	11	1	25	6	-1	-1	-1	-1	49	-1
41	-1	-1	-1	-1	-1	-1	-1	-1	3	-1	-1	6	45	18	43	-1	-1	-1	-1	-1	-1	-1	23	29	27	-1	-1	-1	-1	42	14	-1	47	8	40	-1	12	-1	-1	-1	-1	16	-1	-1	-1	31	-1	-1
49 
29 40 8 27
10 29 42 32
18 35 36 19
8 24 22 37
49 3 20 41
27 2 1 47
49 8 23 7
37 24 7 29
26 15 29 44
32 11 8 2
13 9 1 31
39 42 21 49
13 11 33 32
2 45 29 19
18 4 5 5
36 35 3 18
17 37 13 5
19 36 29 39
19 10 15 20
6 18 47 27
49 30 8 37
32 28 20 20
45 45 32 13
4 43 45 12
6 44 9 21
40 29 37 48
16 27 31 18
34 15 38 45
15 37 19 27
39 20 17 34
22 14 41 31
1 48 49 45
45 9 28 33
8 32 47 47
15 11 40 43
5 6 15 48
18 37 14 9
24 27 43 30
33 1 41 43
30 8 44 9
3 28 27 3
40 40 10 7
8 28 3 13
2 37 12 6
8 5 12 44
34 12 35 34
30 35 1 22
12 41 6 39
37 43 28 4
